(set-logic QF_S)
(declare-fun var0 () String)
(declare-fun var1 () String)
(declare-fun var2 () String)
(declare-fun var3 () Int)
(declare-fun var4 () Int)
(declare-fun var5 () Int)
(declare-fun var6 () Bool)
(declare-fun var7 () Bool)
(declare-fun var8 () Bool)
(assert (< var4 0))
(assert (<= (str.indexof var2 var2 var4) (str.indexof var2 var0 var5)))
(assert (str.prefixof var1 var1))
(assert (<= var5 var5))
(check-sat)